NAME: CVRP_BENCHMARK
TYPE: CVRP
COMMENT: none
DIMENSION: 51
NUM_DAYS: 5
CAPACITY: 160
DISTANCE: 200
EDGE_WEIGHT_TYPE: FUNCTION
EDGE_WEIGHT_FORMAT: EUC_2D
NODE_COORD_TYPE: TWOD_COORDS
NODE_COORD_SECTION
1	7.000 12.000
2	19.000 9.000
3	22.000 24.000
4	-10.000 -14.000
5	10.000 -10.000
6	-9.000 7.000
7	-13.000 23.000
8	1.000 22.000
9	22.000 -7.000
10	21.000 -19.000
11	12.000 1.000
12	1.000 -8.000
13	-25.000 -15.000
14	-18.000 2.000
15	6.000 -24.000
16	22.000 1.000
17	-3.000 -17.000
18	-13.000 -7.000
19	-17.000 -27.000
20	27.000 18.000
21	32.000 2.000
22	12.000 17.000
23	-14.000 17.000
24	-22.000 12.000
25	-23.000 -2.000
26	-3.000 28.000
27	0.000 8.000
28	13.000 27.000
29	28.000 8.000
30	28.000 -13.000
31	7.000 29.000
32	8.000 6.000
33	16.000 -30.000
34	31.000 -7.000
35	32.000 23.000
36	33.000 29.000
37	2.000 -18.000
38	15.000 -5.000
39	29.000 -25.000
40	-25.000 -34.000
41	-20.000 -23.000
42	-9.000 -30.000
43	-25.000 24.000
44	0.000 -25.000
45	9.000 -30.000
46	2.000 -1.000
47	-5.000 -8.000
48	-5.000 15.000
49	18.000 -12.000
50	26.000 -3.000
DEMAND_SECTION
1 7 -1 7 7 -1
2 30 30 -1 -1 30
3 16 16 -1 16 16
4 -1 9 9 9 9
5 -1 -1 21 21 -1
6 15 15 15 -1 -1
7 19 19 -1 19 19
8 23 23 23 -1 23
9 -1 -1 11 11 11
10 5 5 5 -1 5
11 19 19 19 -1 19
12 29 29 29 29 29
13 23 23 23 23 -1
14 21 -1 21 21 21
15 10 10 -1 10 -1
16 15 15 15 15 15
17 -1 -1 3 -1 3
18 41 41 41 -1 41
19 9 9 9 9 9
20 -1 -1 -1 -1 -1
21 -1 8 8 8 8
22 8 8 8 -1 8
23 16 16 -1 16 16
24 -1 10 10 10 -1
25 28 -1 28 -1 28
26 -1 7 7 7 7
27 15 15 15 -1 -1
28 -1 14 14 14 -1
29 6 6 -1 6 -1
30 -1 -1 -1 -1 19
31 11 -1 -1 11 11
32 12 -1 12 12 12
33 -1 23 -1 23 23
34 26 -1 -1 26 -1
35 -1 17 17 17 17
36 6 -1 -1 6 6
37 9 9 9 9 9
38 15 -1 15 -1 15
39 14 14 14 -1 14
40 7 7 7 7 -1
41 -1 -1 -1 27 -1
42 13 -1 13 -1 -1
43 11 11 11 11 11
44 16 16 -1 16 16
45 10 10 10 10 -1
46 5 5 -1 5 5
47 25 25 -1 -1 25
48 -1 17 17 17 17
49 18 18 18 18 18
50 10 -1 10 10 10
SVC_TIME_SECTION
1	10.000000	0.000000	10.000000	10.000000	0.000000	
2	10.000000	10.000000	0.000000	0.000000	10.000000	
3	10.000000	10.000000	0.000000	10.000000	10.000000	
4	0.000000	10.000000	10.000000	10.000000	10.000000	
5	0.000000	0.000000	10.000000	10.000000	0.000000	
6	10.000000	10.000000	10.000000	0.000000	0.000000	
7	10.000000	10.000000	0.000000	10.000000	10.000000	
8	10.000000	10.000000	10.000000	0.000000	10.000000	
9	0.000000	0.000000	10.000000	10.000000	10.000000	
10	10.000000	10.000000	10.000000	0.000000	10.000000	
11	10.000000	10.000000	10.000000	0.000000	10.000000	
12	10.000000	10.000000	10.000000	10.000000	10.000000	
13	10.000000	10.000000	10.000000	10.000000	0.000000	
14	10.000000	0.000000	10.000000	10.000000	10.000000	
15	10.000000	10.000000	0.000000	10.000000	0.000000	
16	10.000000	10.000000	10.000000	10.000000	10.000000	
17	0.000000	0.000000	10.000000	0.000000	10.000000	
18	10.000000	10.000000	10.000000	0.000000	10.000000	
19	10.000000	10.000000	10.000000	10.000000	10.000000	
20	0.000000	0.000000	0.000000	0.000000	0.000000	
21	0.000000	10.000000	10.000000	10.000000	10.000000	
22	10.000000	10.000000	10.000000	0.000000	10.000000	
23	10.000000	10.000000	0.000000	10.000000	10.000000	
24	0.000000	10.000000	10.000000	10.000000	0.000000	
25	10.000000	0.000000	10.000000	0.000000	10.000000	
26	0.000000	10.000000	10.000000	10.000000	10.000000	
27	10.000000	10.000000	10.000000	0.000000	0.000000	
28	0.000000	10.000000	10.000000	10.000000	0.000000	
29	10.000000	10.000000	0.000000	10.000000	0.000000	
30	0.000000	0.000000	0.000000	0.000000	10.000000	
31	10.000000	0.000000	0.000000	10.000000	10.000000	
32	10.000000	0.000000	10.000000	10.000000	10.000000	
33	0.000000	10.000000	0.000000	10.000000	10.000000	
34	10.000000	0.000000	0.000000	10.000000	0.000000	
35	0.000000	10.000000	10.000000	10.000000	10.000000	
36	10.000000	0.000000	0.000000	10.000000	10.000000	
37	10.000000	10.000000	10.000000	10.000000	10.000000	
38	10.000000	0.000000	10.000000	0.000000	10.000000	
39	10.000000	10.000000	10.000000	0.000000	10.000000	
40	10.000000	10.000000	10.000000	10.000000	0.000000	
41	0.000000	0.000000	0.000000	10.000000	0.000000	
42	10.000000	0.000000	10.000000	0.000000	0.000000	
43	10.000000	10.000000	10.000000	10.000000	10.000000	
44	10.000000	10.000000	0.000000	10.000000	10.000000	
45	10.000000	10.000000	10.000000	10.000000	0.000000	
46	10.000000	10.000000	0.000000	10.000000	10.000000	
47	10.000000	10.000000	0.000000	0.000000	10.000000	
48	0.000000	10.000000	10.000000	10.000000	10.000000	
49	10.000000	10.000000	10.000000	10.000000	10.000000	
50	10.000000	0.000000	10.000000	10.000000	10.000000	
DEPOT_SECTION
0.0000 0.00000
-1
EOF

